NAME : cgl_70.10237.tour
COMMENT : Length = 10237
COMMENT : Found by LKH-3 [Keld Helsgaun] Fri Nov  8 19:20:30 2024
TYPE : TOUR
DIMENSION : 70
TOUR_SECTION
36
38
37
43
39
44
45
46
48
47
51
49
50
53
52
61
62
63
64
65
66
69
68
67
57
58
59
60
54
56
55
70
1
2
3
4
6
5
7
10
11
8
21
22
20
19
18
13
15
17
16
14
12
9
23
25
24
28
26
40
42
41
27
29
35
32
34
31
33
30
-1
EOF
